NAME 
ROWS
 N  OBJ
 L  R0      
 E  R1      
 E  R2      
 E  R3      
 E  R4      
 E  R5      
 E  R6      
 E  R7      
 E  R8      
 E  R9      
 E  R10     
 E  R11     
 E  R12     
 E  R13     
 E  R14     
 E  R15     
 E  R16     
 E  R17     
 E  R18     
 E  R19     
 E  R20     
 E  R21     
 E  R22     
 E  R23     
 E  R24     
 E  R25     
 E  R26     
 E  R27     
 E  R28     
 E  R29     
 E  R30     
COLUMNS
    MARKER    'MARKER'                 'INTORG'
    I0(3)     OBJ       -46
    I0(3)     R0        144
    I0(3)     R1        6
    I0(3)     R30       1
    I1(3)     OBJ       95
    I1(3)     R0        6
    I1(3)     R2        18
    I1(3)     R30       1
    I2(3)     OBJ       181
    I2(3)     R0        48
    I2(3)     R3        9
    I2(3)     R30       1
    I3(3)     OBJ       -171
    I3(3)     R0        -62
    I3(3)     R4        12
    I3(3)     R30       1
    I4(3)     OBJ       111
    I4(3)     R0        116
    I4(3)     R5        1
    I4(3)     R30       1
    I5(3)     OBJ       -163
    I5(3)     R0        20
    I5(3)     R6        9
    I5(3)     R30       1
    I6(3)     OBJ       147
    I6(3)     R0        -95
    I6(3)     R7        19
    I6(3)     R30       1
    I7(3)     OBJ       -39
    I7(3)     R0        -156
    I7(3)     R8        19
    I7(3)     R30       1
    I8(3)     OBJ       -146
    I8(3)     R0        108
    I8(3)     R9        15
    I8(3)     R30       1
    I9(3)     OBJ       168
    I9(3)     R0        21
    I9(3)     R10       13
    I9(3)     R30       1
    I10(3)    OBJ       -165
    I10(3)    R0        -51
    I10(3)    R11       9
    I10(3)    R30       1
    I11(3)    OBJ       -26
    I11(3)    R0        -123
    I11(3)    R12       3
    I11(3)    R30       1
    I12(3)    OBJ       150
    I12(3)    R0        118
    I12(3)    R13       5
    I12(3)    R30       1
    I13(3)    OBJ       117
    I13(3)    R0        -142
    I13(3)    R14       4
    I13(3)    R30       1
    I14(3)    OBJ       -106
    I14(3)    R0        -139
    I14(3)    R15       10
    I14(3)    R30       1
    I15(3)    OBJ       -60
    I15(3)    R0        -27
    I15(3)    R16       17
    I15(3)    R30       1
    I16(3)    OBJ       -169
    I16(3)    R0        80
    I16(3)    R17       12
    I16(3)    R30       1
    I17(3)    OBJ       153
    I17(3)    R0        -54
    I17(3)    R18       16
    I17(3)    R30       1
    I18(3)    OBJ       47
    I18(3)    R0        8
    I18(3)    R19       8
    I18(3)    R30       1
    I19(2)    OBJ       128
    I19(2)    R0        37
    I19(2)    R30       1
    I20(3)    OBJ       2
    I20(3)    R0        111
    I20(3)    R21       16
    I20(3)    R30       1
    I21(3)    OBJ       -97
    I21(3)    R0        118
    I21(3)    R22       18
    I21(3)    R30       1
    I22(3)    OBJ       19
    I22(3)    R0        74
    I22(3)    R23       3
    I22(3)    R30       1
    I23(3)    OBJ       184
    I23(3)    R0        118
    I23(3)    R24       12
    I23(3)    R30       1
    I24(3)    OBJ       -17
    I24(3)    R0        53
    I24(3)    R25       3
    I24(3)    R30       1
    I25(3)    OBJ       118
    I25(3)    R0        98
    I25(3)    R26       5
    I25(3)    R30       1
    I26(3)    OBJ       -157
    I26(3)    R0        24
    I26(3)    R27       18
    I26(3)    R30       1
    I27(3)    OBJ       37
    I27(3)    R0        53
    I27(3)    R28       17
    I27(3)    R30       1
    MARKER    'MARKER'                 'INTEND'
    C28(28)   OBJ       8
    C28(28)   R1        17
    C28(28)   R2        12
    C28(28)   R3        1
    C28(28)   R4        2
    C28(28)   R5        14
    C28(28)   R6        1
    C28(28)   R7        2
    C28(28)   R8        12
    C28(28)   R9        7
    C28(28)   R10       -1
    C28(28)   R11       9
    C28(28)   R12       13
    C28(28)   R13       4
    C28(28)   R14       16
    C28(28)   R15       2
    C28(28)   R16       17
    C28(28)   R17       -1
    C28(28)   R18       6
    C28(28)   R20       10
    C28(28)   R21       17
    C28(28)   R22       19
    C28(28)   R23       2
    C28(28)   R24       13
    C28(28)   R25       5
    C28(28)   R26       15
    C28(28)   R27       9
    C28(28)   R28       -1
    C28(28)   R29       3
    C29(28)   OBJ       7
    C29(28)   R0        -7
    C29(28)   R2        18
    C29(28)   R3        -1
    C29(28)   R4        10
    C29(28)   R6        15
    C29(28)   R7        6
    C29(28)   R8        1
    C29(28)   R9        18
    C29(28)   R10       15
    C29(28)   R11       14
    C29(28)   R12       5
    C29(28)   R13       18
    C29(28)   R14       4
    C29(28)   R15       5
    C29(28)   R16       5
    C29(28)   R17       13
    C29(28)   R18       17
    C29(28)   R19       15
    C29(28)   R20       9
    C29(28)   R21       12
    C29(28)   R22       1
    C29(28)   R23       17
    C29(28)   R24       3
    C29(28)   R25       10
    C29(28)   R26       17
    C29(28)   R27       3
    C29(28)   R28       15
    C29(28)   R29       -1
    C30(1)    R1        1
    C31(1)    R2        1
    C32(1)    R3        1
    C33(1)    R4        1
    C34(1)    R5        1
    C35(1)    R6        1
    C36(1)    R7        1
    C37(1)    R8        1
    C38(1)    R9        1
    C39(1)    R10       1
    C40(1)    R11       1
    C41(1)    R12       1
    C42(1)    R13       1
    C43(1)    R14       1
    C44(1)    R15       1
    C45(1)    R16       1
    C46(1)    R17       1
    C47(1)    R18       1
    C48(1)    R19       1
    C49(1)    R20       1
    C50(1)    R21       1
    C51(1)    R22       1
    C52(1)    R23       1
    C53(1)    R24       1
    C54(1)    R25       1
    C55(1)    R26       1
    C56(1)    R27       1
    C57(1)    R28       1
    C58(1)    R29       1
    C59(1)    R30       1
RHS
    RHS1      R0        71
    RHS1      R1        59
    RHS1      R2        92
    RHS1      R3        87
    RHS1      R4        86
    RHS1      R5        96
    RHS1      R6        83
    RHS1      R7        62
    RHS1      R8        83
    RHS1      R9        93
    RHS1      R10       79
    RHS1      R11       73
    RHS1      R12       60
    RHS1      R13       70
    RHS1      R14       66
    RHS1      R15       58
    RHS1      R16       86
    RHS1      R17       83
    RHS1      R18       59
    RHS1      R19       79
    RHS1      R20       78
    RHS1      R21       94
    RHS1      R22       67
    RHS1      R23       98
    RHS1      R24       98
    RHS1      R25       91
    RHS1      R26       61
    RHS1      R27       82
    RHS1      R28       50
    RHS1      R29       59
    RHS1      R30       9
BOUNDS
 UP BND1      I0(3)     1
 UP BND1      I1(3)     1
 UP BND1      I2(3)     1
 UP BND1      I3(3)     1
 UP BND1      I4(3)     1
 UP BND1      I5(3)     1
 UP BND1      I6(3)     1
 UP BND1      I7(3)     1
 UP BND1      I8(3)     1
 UP BND1      I9(3)     1
 UP BND1      I10(3)    1
 UP BND1      I11(3)    1
 UP BND1      I12(3)    1
 UP BND1      I13(3)    1
 UP BND1      I14(3)    1
 UP BND1      I15(3)    1
 UP BND1      I16(3)    1
 UP BND1      I17(3)    1
 UP BND1      I18(3)    1
 UP BND1      I19(2)    1
 UP BND1      I20(3)    1
 UP BND1      I21(3)    1
 UP BND1      I22(3)    1
 UP BND1      I23(3)    1
 UP BND1      I24(3)    1
 UP BND1      I25(3)    1
 UP BND1      I26(3)    1
 UP BND1      I27(3)    1
ENDATA
